(set-logic CHC_LIA)

(synth-fun state ((x_0 Bool) (x_1 Bool) (x_2 Bool) (x_3 Bool) (x_4 Bool) (x_5 Int) (x_6 Int) (x_7 Int) (x_8 Int)) Bool)

(constraint (forall ((.s.1 Bool) (.s.0 Bool) (.s.2 Bool) (.s.3 Bool) (.s.4 Bool) (main.n Int) (main.k Int) (main.j Int) (main.i Int)) (=> (and (not .s.1) .s.0 (not .s.2) (not .s.3) (not .s.4)) (state .s.1 .s.0 .s.2 .s.3 .s.4 main.n main.k main.j main.i))))
(constraint (forall ((.s.1 Bool) (.s.0 Bool) (.s.2 Bool) (.s.3 Bool) (.s.4 Bool) (main.n Int) (main.k Int) (main.j Int) (main.i Int) (main.n.next Int) (main.k.next Int) (main.j.next Int) (main.i.next Int) (.s.4.next Bool) (.s.3.next Bool) (.s.2.next Bool) (.s.1.next Bool) (.s.0.next Bool) (.inputVar.0 Int)) (let ((a!1 (and (not .s.3) (and (and (not .s.1) .s.0) .s.2))) (a!2 (and (not .s.3.next) (and (not .s.2.next) (and (not .s.1.next) (not .s.0.next))))) (a!4 (and (not .s.3) (and .s.2 (and (not .s.1) (not .s.0))))) (a!5 (and (not .s.3.next) (and (not .s.2.next) (and .s.1.next (not .s.0.next))))) (a!7 (and .s.4 (and (not .s.3) (and (not .s.2) (and .s.1 .s.0))))) (a!8 (= (+ main.i (* (- 1) main.i.next)) (- 1))) (a!9 (and (not .s.3.next) (and .s.2.next (and (not .s.1.next) (not .s.0.next))))) (a!10 (and (not .s.3) (and (not .s.2) (and .s.1 (not .s.0))))) (a!12 (and (and (and (not .s.1) .s.0) (not .s.2)) (not .s.3))) (a!13 (= (+ main.j (* (- 1) main.j.next)) (- 1))) (a!14 (and (not .s.3) (and (not .s.2) (and (not .s.1) (not .s.0))))) (a!16 (not (and (not .s.4) .s.3 (and .s.2 (and .s.1 .s.0))))) (a!17 (and (= main.n main.n.next) (= main.k main.k.next) (= main.j main.j.next) (= main.i main.i.next) (not .s.4.next) .s.3.next (and .s.2.next (and .s.1.next .s.0.next)))) (a!18 (and (not .s.4) .s.3 (and .s.2 (and .s.1 (not .s.0))))) (a!19 (and (not .s.4.next) (not .s.3.next) (and .s.2.next (and .s.1.next (not .s.0.next))))) (a!20 (and (not .s.4) .s.3 (and (and (not .s.1) .s.0) .s.2))) (a!21 (= (+ main.k (* (- 1) main.k.next)) (- 1))) (a!23 (and (not .s.4) .s.3 (and .s.2 (and (not .s.1) (not .s.0))))) (a!24 (and (= main.n main.n.next) (= main.k main.k.next) (= main.j main.j.next) (= main.i main.i.next) (not .s.4.next) .s.3.next (and .s.2.next (and (not .s.1.next) .s.0.next)))) (a!25 (not (and (not .s.4) .s.3 (and (not .s.2) (and .s.1 .s.0))))) (a!26 (and (= main.n main.n.next) (= main.k main.k.next) (= main.j main.j.next) (= main.i main.i.next) (not .s.4.next) .s.3.next (and .s.2.next (and (not .s.1.next) (not .s.0.next))))) (a!27 (and (not .s.4) .s.3 (and (not .s.2) (and .s.1 (not .s.0))))) (a!30 (and (not .s.4) (and (and (not .s.1) .s.0) (not .s.2)) .s.3)) (a!31 (and (= main.n main.n.next) (= main.k main.k.next) (= main.j main.j.next) (= main.i main.i.next) (not .s.4.next) .s.3.next (and (not .s.2.next) (and .s.1.next (not .s.0.next))))) (a!32 (and (not .s.4) .s.3 (and (not .s.2) (and (not .s.1) (not .s.0))))) (a!33 (and (= main.n main.n.next) (= main.k main.k.next) (= main.j main.j.next) (= main.i main.i.next) (not .s.4.next) .s.3.next (and (not .s.2.next) (and (not .s.1.next) .s.0.next)))) (a!36 (and (not .s.4) (not .s.3) (and .s.2 (and .s.1 .s.0)))) (a!37 (and (= main.n main.n.next) (= main.k main.k.next) (= main.j main.j.next) (= main.i main.i.next) (not .s.4.next) .s.3.next (and (not .s.2.next) (and (not .s.1.next) (not .s.0.next))))) (a!40 (and (not .s.4) (not .s.3) (and .s.2 (and .s.1 (not .s.0))))) (a!43 (and (= main.n main.n.next) (= main.k main.k.next) (= main.j main.j.next) (= main.i main.i.next) .s.4.next (not .s.3.next) (and (not .s.2.next) (and (not .s.1.next) .s.0.next)))) (a!47 (and (not .s.3.next) (and .s.2.next (and (not .s.1.next) .s.0.next)))) (a!49 (and (= main.n main.n.next) (= main.k main.k.next) (= main.j main.j.next) (= main.i main.i.next) .s.4.next (and (not .s.3.next) (and (not .s.2.next) (and .s.1.next .s.0.next))))) (a!50 (and (not .s.4) (and (not .s.3) (and (not .s.2) (and .s.1 .s.0))))) (a!53 (and (= main.n main.n.next) (= main.k main.k.next) (= main.j main.j.next) (= main.i main.i.next) (not .s.4.next) (and (not .s.3.next) (and (not .s.2.next) (and .s.1.next .s.0.next)))))) (let ((a!3 (and (= main.n main.n.next) (= main.k main.k.next) (= main.j main.j.next) (= main.i main.i.next) (not .s.4.next) a!2)) (a!6 (or (not (and .s.4 a!4)) (and (= main.n main.n.next) (= main.k main.k.next) (= main.j main.j.next) (= main.i main.i.next) (and (not .s.4.next) a!5)))) (a!11 (or (not (and .s.4 a!10)) (and (= main.n main.n.next) (= main.k main.k.next) (= main.j main.j.next) (= main.i main.i.next) (and (not .s.4.next) a!9)))) (a!15 (and (= main.n main.n.next) (= main.k main.k.next) (= main.j main.j.next) (= main.i main.i.next) .s.4.next a!2)) (a!22 (and (= main.n main.n.next) (= main.j main.j.next) (= main.i main.i.next) a!21 (not .s.4.next) .s.3.next (and .s.2.next (and .s.1.next (not .s.0.next))))) (a!28 (not (and a!27 (not (<= main.i main.j))))) (a!29 (or (not (and a!27 (<= main.i main.j))) (and (= main.n main.n.next) (= main.k main.k.next) (= main.j main.j.next) (= main.i main.i.next) (not .s.4.next) .s.3.next (and (not .s.2.next) (and .s.1.next .s.0.next))))) (a!34 (or (not (and a!32 (<= main.j main.k))) a!33)) (a!35 (not (and a!32 (not (<= main.j main.k))))) (a!38 (or (not (and a!36 (= .inputVar.0 0))) a!37)) (a!39 (not (and a!36 (not (= .inputVar.0 0))))) (a!41 (not (and a!40 (not (<= main.n main.k))))) (a!44 (or (not (and a!40 (<= main.n main.k))) a!43)) (a!45 (or (not (and (not .s.4) a!1)) (and (= main.n main.n.next) (= main.j main.j.next) (= main.i main.i.next) a!19 (= main.k.next main.j)))) (a!46 (not (and (and (not .s.4) a!4) (not (<= main.n main.j))))) (a!48 (not (and (and (not .s.4) a!4) (<= main.n main.j)))) (a!51 (or (not a!50) (and (= main.n main.n.next) (= main.k main.k.next) (= main.i main.i.next) (and (not .s.4.next) a!9) (= main.j.next main.i)))) (a!52 (not (and (and (not .s.4) a!10) (not (<= main.n main.i))))) (a!54 (not (and (and (not .s.4) a!10) (<= main.n main.i)))) (a!55 (or (not (and a!12 (not .s.4))) (and (= main.n main.n.next) (= main.k main.k.next) (= main.j main.j.next) (and (not .s.4.next) a!5) (= main.i.next 0))))) (let ((a!42 (or a!41 (and (= main.n main.n.next) (= main.k main.k.next) (= main.j main.j.next) (= main.i main.i.next) (not .s.4.next) (not .s.3.next) (and .s.2.next (and .s.1.next .s.0.next))))) (a!56 (or a!3 (not (and (not .s.4) a!14))))) (let ((a!57 (and (state .s.1 .s.0 .s.2 .s.3 .s.4 main.n main.k main.j main.i) (or (not (and .s.4 a!1)) a!3) a!6 (or (not a!7) (and (= main.n main.n.next) (= main.k main.k.next) (= main.j main.j.next) a!8 .s.4.next a!9)) a!11 (or (not (and a!12 .s.4)) (and (= main.n main.n.next) (= main.k main.k.next) (= main.i main.i.next) a!13 .s.4.next a!5)) (or (not (and .s.4 a!14)) a!15) (or a!16 a!17) (or (not a!18) (and (= main.n main.n.next) (= main.k main.k.next) (= main.j main.j.next) (= main.i main.i.next) a!19)) (or (not a!20) a!22) (or (not a!23) a!24) (or a!25 a!26) (or a!17 a!28) a!29 (or (not a!30) a!31) a!34 (or a!15 a!35) a!38 (or a!24 a!39) a!42 a!44 a!45 (or a!46 (and (= main.n main.n.next) (= main.k main.k.next) (= main.j main.j.next) (= main.i main.i.next) (not .s.4.next) a!47)) (or a!48 a!49) a!51 (or a!52 a!53) (or a!54 (and (= main.n main.n.next) (= main.k main.k.next) (= main.j main.j.next) (= main.i main.i.next) .s.4.next a!47)) a!55 a!56))) (=> a!57 (state .s.1.next .s.0.next .s.2.next .s.3.next .s.4.next main.n.next main.k.next main.j.next main.i.next))))))))
(constraint (forall ((.s.1 Bool) (.s.0 Bool) (.s.2 Bool) (.s.3 Bool) (.s.4 Bool) (main.n Int) (main.k Int) (main.j Int) (main.i Int)) (let ((a!1 (and (not (and .s.4 (not .s.3) (not .s.2) (not .s.1) (not .s.0))) (not (and (not .s.4) .s.3 .s.2 .s.1 .s.0))))) (=> (and (state .s.1 .s.0 .s.2 .s.3 .s.4 main.n main.k main.j main.i) (not a!1)) false))))

(check-synth)

